# Solution for model FSG
# Objective value = 3453.06178741097
x_0_1 0
x_0_2 0
x_0_3 1
x_0_4 0
x_0_5 0
x_0_6 1
x_0_7 0
x_0_8 0
x_0_9 0
x_0_10 0
x_0_11 0
x_1_2 0
x_1_3 0
x_1_4 0
x_1_5 0
x_1_6 0
x_1_7 0
x_1_8 1
x_1_9 0
x_1_10 0
x_1_11 0
x_2_1 0
x_2_3 0
x_2_4 0
x_2_5 0
x_2_6 0
x_2_7 0
x_2_8 0
x_2_9 1
x_2_10 0
x_2_11 0
x_3_1 0
x_3_2 0
x_3_4 0
x_3_5 1
x_3_6 0
x_3_7 0
x_3_8 0
x_3_9 0
x_3_10 0
x_3_11 0
x_4_1 1
x_4_2 0
x_4_3 0
x_4_5 0
x_4_6 0
x_4_7 0
x_4_8 0
x_4_9 0
x_4_10 0
x_4_11 0
x_5_1 0
x_5_2 0
x_5_3 0
x_5_4 0
x_5_6 0
x_5_7 1
x_5_8 0
x_5_9 0
x_5_10 0
x_5_11 0
x_6_1 0
x_6_2 0
x_6_3 0
x_6_4 1
x_6_5 0
x_6_7 0
x_6_8 0
x_6_9 0
x_6_10 0
x_6_11 0
x_7_1 0
x_7_2 1
x_7_3 0
x_7_4 0
x_7_5 0
x_7_6 0
x_7_8 0
x_7_9 0
x_7_10 0
x_7_11 0
x_8_1 0
x_8_2 0
x_8_3 0
x_8_4 0
x_8_5 0
x_8_6 0
x_8_7 0
x_8_9 0
x_8_10 0
x_8_11 1
x_9_1 0
x_9_2 0
x_9_3 0
x_9_4 0
x_9_5 0
x_9_6 0
x_9_7 0
x_9_8 0
x_9_10 1
x_9_11 0
U_1_1 0
U_1_2 1
U_1_3 0
U_2_1 0
U_2_2 0
U_2_3 1
U_3_1 0
U_3_2 1
U_3_3 0
U_4_1 1
U_4_2 0
U_4_3 0
U_5_1 0
U_5_2 1
U_5_3 0
U_6_1 1
U_6_2 0
U_6_3 0
U_7_1 0
U_7_2 1
U_7_3 0
U_8_1 0
U_8_2 1
U_8_3 0
U_9_1 0
U_9_2 0
U_9_3 1
U_10_1 0
U_10_2 0
U_10_3 1
U_11_1 0
U_11_2 0
U_11_3 1
TBar_0 0
TBar_1 15
TBar_2 3.6575142584005306e+01
TBar_3 15
TBar_4 5.1783883339454349e+00
TBar_5 1.7666477076593758e+01
TBar_6 1.5148927354766712e+00
TBar_7 30
TBar_8 30
TBar_9 3.9483509823540231e+01
TBar_10 4.4318982913114816e+01
TBar_11 4.0870196443828540e+01
y_0_1_1 0
y_0_1_2 0
y_0_1_3 0
y_0_1_4 0
y_0_1_5 0
y_0_2_1 0
y_0_2_2 0
y_0_2_3 0
y_0_2_4 0
y_0_2_5 0
y_0_3_1 0
y_0_3_2 0
y_0_3_3 0
y_0_3_4 0
y_0_3_5 0
y_0_4_1 0
y_0_4_2 0
y_0_4_3 0
y_0_4_4 0
y_0_4_5 0
y_0_5_1 0
y_0_5_2 0
y_0_5_3 0
y_0_5_4 0
y_0_5_5 0
y_0_6_1 0
y_0_6_2 0
y_0_6_3 0
y_0_6_4 0
y_0_6_5 0
y_0_7_1 0
y_0_7_2 0
y_0_7_3 0
y_0_7_4 0
y_0_7_5 0
y_0_8_1 0
y_0_8_2 0
y_0_8_3 0
y_0_8_4 0
y_0_8_5 0
y_0_9_1 0
y_0_9_2 0
y_0_9_3 0
y_0_9_4 0
y_0_9_5 0
y_0_10_1 0
y_0_10_2 0
y_0_10_3 0
y_0_10_4 0
y_0_10_5 0
y_0_11_1 0
y_0_11_2 0
y_0_11_3 0
y_0_11_4 0
y_0_11_5 0
y_1_2_1 0
y_1_2_2 0
y_1_2_3 0
y_1_2_4 0
y_1_2_5 0
y_1_3_1 0
y_1_3_2 0
y_1_3_3 0
y_1_3_4 0
y_1_3_5 0
y_1_4_1 0
y_1_4_2 0
y_1_4_3 0
y_1_4_4 0
y_1_4_5 0
y_1_5_1 0
y_1_5_2 0
y_1_5_3 0
y_1_5_4 0
y_1_5_5 0
y_1_6_1 0
y_1_6_2 0
y_1_6_3 0
y_1_6_4 0
y_1_6_5 0
y_1_7_1 0
y_1_7_2 0
y_1_7_3 0
y_1_7_4 0
y_1_7_5 0
y_1_8_1 1
y_1_8_2 1
y_1_8_3 1
y_1_8_4 1
y_1_8_5 1
y_1_9_1 0
y_1_9_2 0
y_1_9_3 0
y_1_9_4 0
y_1_9_5 0
y_1_10_1 0
y_1_10_2 0
y_1_10_3 0
y_1_10_4 0
y_1_10_5 0
y_1_11_1 0
y_1_11_2 0
y_1_11_3 0
y_1_11_4 0
y_1_11_5 0
y_2_1_1 0
y_2_1_2 0
y_2_1_3 0
y_2_1_4 0
y_2_1_5 0
y_2_3_1 0
y_2_3_2 0
y_2_3_3 0
y_2_3_4 0
y_2_3_5 0
y_2_4_1 0
y_2_4_2 0
y_2_4_3 0
y_2_4_4 0
y_2_4_5 0
y_2_5_1 0
y_2_5_2 0
y_2_5_3 0
y_2_5_4 0
y_2_5_5 0
y_2_6_1 0
y_2_6_2 0
y_2_6_3 0
y_2_6_4 0
y_2_6_5 0
y_2_7_1 0
y_2_7_2 0
y_2_7_3 0
y_2_7_4 0
y_2_7_5 0
y_2_8_1 0
y_2_8_2 0
y_2_8_3 0
y_2_8_4 0
y_2_8_5 0
y_2_9_1 1
y_2_9_2 1
y_2_9_3 1
y_2_9_4 1
y_2_9_5 1
y_2_10_1 0
y_2_10_2 0
y_2_10_3 0
y_2_10_4 0
y_2_10_5 0
y_2_11_1 0
y_2_11_2 0
y_2_11_3 0
y_2_11_4 0
y_2_11_5 0
y_3_1_1 0
y_3_1_2 0
y_3_1_3 0
y_3_1_4 0
y_3_1_5 0
y_3_2_1 0
y_3_2_2 0
y_3_2_3 0
y_3_2_4 0
y_3_2_5 0
y_3_4_1 0
y_3_4_2 0
y_3_4_3 0
y_3_4_4 0
y_3_4_5 0
y_3_5_1 0
y_3_5_2 0
y_3_5_3 0
y_3_5_4 0
y_3_5_5 0
y_3_6_1 0
y_3_6_2 0
y_3_6_3 0
y_3_6_4 0
y_3_6_5 0
y_3_7_1 0
y_3_7_2 0
y_3_7_3 0
y_3_7_4 0
y_3_7_5 0
y_3_8_1 0
y_3_8_2 0
y_3_8_3 0
y_3_8_4 0
y_3_8_5 0
y_3_9_1 0
y_3_9_2 0
y_3_9_3 0
y_3_9_4 0
y_3_9_5 0
y_3_10_1 0
y_3_10_2 0
y_3_10_3 0
y_3_10_4 0
y_3_10_5 0
y_3_11_1 0
y_3_11_2 0
y_3_11_3 0
y_3_11_4 0
y_3_11_5 0
y_4_1_1 0
y_4_1_2 0
y_4_1_3 0
y_4_1_4 0
y_4_1_5 0
y_4_2_1 0
y_4_2_2 0
y_4_2_3 0
y_4_2_4 0
y_4_2_5 0
y_4_3_1 0
y_4_3_2 0
y_4_3_3 0
y_4_3_4 0
y_4_3_5 0
y_4_5_1 0
y_4_5_2 0
y_4_5_3 0
y_4_5_4 0
y_4_5_5 0
y_4_6_1 0
y_4_6_2 0
y_4_6_3 0
y_4_6_4 0
y_4_6_5 0
y_4_7_1 0
y_4_7_2 0
y_4_7_3 0
y_4_7_4 0
y_4_7_5 0
y_4_8_1 0
y_4_8_2 0
y_4_8_3 0
y_4_8_4 0
y_4_8_5 0
y_4_9_1 0
y_4_9_2 0
y_4_9_3 0
y_4_9_4 0
y_4_9_5 0
y_4_10_1 0
y_4_10_2 0
y_4_10_3 0
y_4_10_4 0
y_4_10_5 0
y_4_11_1 0
y_4_11_2 0
y_4_11_3 0
y_4_11_4 0
y_4_11_5 0
y_5_1_1 0
y_5_1_2 0
y_5_1_3 0
y_5_1_4 0
y_5_1_5 0
y_5_2_1 0
y_5_2_2 0
y_5_2_3 0
y_5_2_4 0
y_5_2_5 0
y_5_3_1 0
y_5_3_2 0
y_5_3_3 0
y_5_3_4 0
y_5_3_5 0
y_5_4_1 0
y_5_4_2 0
y_5_4_3 0
y_5_4_4 0
y_5_4_5 0
y_5_6_1 0
y_5_6_2 0
y_5_6_3 0
y_5_6_4 0
y_5_6_5 0
y_5_7_1 0
y_5_7_2 0
y_5_7_3 0
y_5_7_4 0
y_5_7_5 0
y_5_8_1 0
y_5_8_2 0
y_5_8_3 0
y_5_8_4 0
y_5_8_5 0
y_5_9_1 0
y_5_9_2 0
y_5_9_3 0
y_5_9_4 0
y_5_9_5 0
y_5_10_1 0
y_5_10_2 0
y_5_10_3 0
y_5_10_4 0
y_5_10_5 0
y_5_11_1 0
y_5_11_2 0
y_5_11_3 0
y_5_11_4 0
y_5_11_5 0
y_6_1_1 0
y_6_1_2 0
y_6_1_3 0
y_6_1_4 0
y_6_1_5 0
y_6_2_1 0
y_6_2_2 0
y_6_2_3 0
y_6_2_4 0
y_6_2_5 0
y_6_3_1 0
y_6_3_2 0
y_6_3_3 0
y_6_3_4 0
y_6_3_5 0
y_6_4_1 0
y_6_4_2 0
y_6_4_3 0
y_6_4_4 0
y_6_4_5 0
y_6_5_1 0
y_6_5_2 0
y_6_5_3 0
y_6_5_4 0
y_6_5_5 0
y_6_7_1 0
y_6_7_2 0
y_6_7_3 0
y_6_7_4 0
y_6_7_5 0
y_6_8_1 0
y_6_8_2 0
y_6_8_3 0
y_6_8_4 0
y_6_8_5 0
y_6_9_1 0
y_6_9_2 0
y_6_9_3 0
y_6_9_4 0
y_6_9_5 0
y_6_10_1 0
y_6_10_2 0
y_6_10_3 0
y_6_10_4 0
y_6_10_5 0
y_6_11_1 0
y_6_11_2 0
y_6_11_3 0
y_6_11_4 0
y_6_11_5 0
y_7_1_1 0
y_7_1_2 0
y_7_1_3 0
y_7_1_4 0
y_7_1_5 0
y_7_2_1 1
y_7_2_2 1
y_7_2_3 1
y_7_2_4 1
y_7_2_5 1
y_7_3_1 0
y_7_3_2 0
y_7_3_3 0
y_7_3_4 0
y_7_3_5 0
y_7_4_1 0
y_7_4_2 0
y_7_4_3 0
y_7_4_4 0
y_7_4_5 0
y_7_5_1 0
y_7_5_2 0
y_7_5_3 0
y_7_5_4 0
y_7_5_5 0
y_7_6_1 0
y_7_6_2 0
y_7_6_3 0
y_7_6_4 0
y_7_6_5 0
y_7_8_1 0
y_7_8_2 0
y_7_8_3 0
y_7_8_4 0
y_7_8_5 0
y_7_9_1 0
y_7_9_2 0
y_7_9_3 0
y_7_9_4 0
y_7_9_5 0
y_7_10_1 0
y_7_10_2 0
y_7_10_3 0
y_7_10_4 0
y_7_10_5 0
y_7_11_1 0
y_7_11_2 0
y_7_11_3 0
y_7_11_4 0
y_7_11_5 0
y_8_1_1 0
y_8_1_2 0
y_8_1_3 0
y_8_1_4 0
y_8_1_5 0
y_8_2_1 0
y_8_2_2 0
y_8_2_3 0
y_8_2_4 0
y_8_2_5 0
y_8_3_1 0
y_8_3_2 0
y_8_3_3 0
y_8_3_4 0
y_8_3_5 0
y_8_4_1 0
y_8_4_2 0
y_8_4_3 0
y_8_4_4 0
y_8_4_5 0
y_8_5_1 0
y_8_5_2 0
y_8_5_3 0
y_8_5_4 0
y_8_5_5 0
y_8_6_1 0
y_8_6_2 0
y_8_6_3 0
y_8_6_4 0
y_8_6_5 0
y_8_7_1 0
y_8_7_2 0
y_8_7_3 0
y_8_7_4 0
y_8_7_5 0
y_8_9_1 0
y_8_9_2 0
y_8_9_3 0
y_8_9_4 0
y_8_9_5 0
y_8_10_1 0
y_8_10_2 0
y_8_10_3 0
y_8_10_4 0
y_8_10_5 0
y_8_11_1 1
y_8_11_2 1
y_8_11_3 1
y_8_11_4 1
y_8_11_5 1
y_9_1_1 0
y_9_1_2 0
y_9_1_3 0
y_9_1_4 0
y_9_1_5 0
y_9_2_1 0
y_9_2_2 0
y_9_2_3 0
y_9_2_4 0
y_9_2_5 0
y_9_3_1 0
y_9_3_2 0
y_9_3_3 0
y_9_3_4 0
y_9_3_5 0
y_9_4_1 0
y_9_4_2 0
y_9_4_3 0
y_9_4_4 0
y_9_4_5 0
y_9_5_1 0
y_9_5_2 0
y_9_5_3 0
y_9_5_4 0
y_9_5_5 0
y_9_6_1 0
y_9_6_2 0
y_9_6_3 0
y_9_6_4 0
y_9_6_5 0
y_9_7_1 0
y_9_7_2 0
y_9_7_3 0
y_9_7_4 0
y_9_7_5 0
y_9_8_1 0
y_9_8_2 0
y_9_8_3 0
y_9_8_4 0
y_9_8_5 0
y_9_10_1 1
y_9_10_2 1
y_9_10_3 1
y_9_10_4 1
y_9_10_5 1
y_9_11_1 0
y_9_11_2 0
y_9_11_3 0
y_9_11_4 0
y_9_11_5 0
Q_0_1 0
Q_0_2 0
Q_0_3 0
Q_0_4 0
Q_0_5 0
Q_1_1 2.2121500000000103e+02
Q_1_2 223.9
Q_1_3 217.580000000001
Q_1_4 220.860000000001
Q_1_5 2.1442500000000103e+02
Q_2_1 328.3
Q_2_2 3.3916000000000133e+02
Q_2_3 3.3579500000000115e+02
Q_2_4 3.3087500000000131e+02
Q_2_5 3.2806000000000131e+02
Q_3_1 61.8100000000008
Q_3_2 71.9200000000008
Q_3_3 76.6450000000008
Q_3_4 6.0735000000000809e+01
Q_3_5 63.6850000000008
Q_4_1 1.2053000000000088e+02
Q_4_2 1.2381500000000088e+02
Q_4_3 1.2231000000000088e+02
Q_4_4 1.2182500000000087e+02
Q_4_5 1.1366000000000088e+02
Q_5_1 144.245
Q_5_2 158.255
Q_5_3 157.105
Q_5_4 149.485
Q_5_5 1.4917000000000002e+02
Q_6_1 58.7200000000008
Q_6_2 62.0800000000008
Q_6_3 61.2900000000008
Q_6_4 60.05
Q_6_5 52.9400000000008
Q_7_1 2.0680500000000058e+02
Q_7_2 2.1892000000000058e+02
Q_7_3 2.1611500000000055e+02
Q_7_4 2.1199000000000061e+02
Q_7_5 2.0514000000000058e+02
Q_8_1 2.9396500000000094e+02
Q_8_2 288.505000000001
Q_8_3 2.9089500000000095e+02
Q_8_4 3.0560500000000093e+02
Q_8_5 277.7
Q_9_1 3.7833000000000118e+02
Q_9_2 378.95
Q_9_3 3.8376500000000118e+02
Q_9_4 3.7520500000000129e+02
Q_9_5 3.6930500000000131e+02
Q_10_1 3.7833000000000118e+02
Q_10_2 378.95
Q_10_3 3.8376500000000118e+02
Q_10_4 3.7520500000000129e+02
Q_10_5 3.6930500000000131e+02
Q_11_1 2.9396500000000094e+02
Q_11_2 288.505000000001
Q_11_3 2.9089500000000095e+02
Q_11_4 3.0560500000000093e+02
Q_11_5 277.7
R_10_1 1.7833000000000118e+02
R_10_2 178.95
R_10_3 1.8376500000000118e+02
R_10_4 1.7520500000000129e+02
R_10_5 1.6930500000000131e+02
R_11_1 9.3965000000000941e+01
R_11_2 8.8505000000001019e+01
R_11_3 9.0895000000000948e+01
R_11_4 1.0560500000000093e+02
R_11_5 77.7
L_1_1 14.13
L_1_2 14.67
L_1_3 9.77
L_1_4 13.65
L_1_5 7.6
L_2_1 0
L_2_2 0
L_2_3 0
L_2_4 0
L_2_5 0
L_3_1 6.035
L_3_2 5.235
L_3_3 6.57
L_3_4 5.2
L_3_5 7.32
L_4_1 16.95
L_4_2 1.3719999999999999e+01
L_4_3 9.345
L_4_4 16.015
L_4_5 19.335
L_5_1 6.975
L_5_2 5.45
L_5_3 7.25
L_5_4 5.4
L_5_5 4.755
L_6_1 22.85
L_6_2 17.875
L_6_3 20.55
L_6_4 26.65
L_6_5 1.5309999999999999e+01
L_7_1 11.35
L_7_2 11.06
L_7_3 10.76
L_7_4 8.91
L_7_5 8.7
L_8_1 4.63
L_8_2 3.01
L_8_3 3.8
L_8_4 3.605
L_8_5 5.735
L_9_1 0
L_9_2 0
L_9_3 0
L_9_4 0
L_9_5 0
rho_1_1 1
rho_1_2 1
rho_1_3 1
rho_1_4 1
rho_1_5 1
rho_2_1 1
rho_2_2 1
rho_2_3 1
rho_2_4 1
rho_2_5 1
rho_3_1 0
rho_3_2 0
rho_3_3 0
rho_3_4 0
rho_3_5 0
rho_4_1 0
rho_4_2 0
rho_4_3 0
rho_4_4 0
rho_4_5 0
rho_5_1 0
rho_5_2 0
rho_5_3 0
rho_5_4 0
rho_5_5 0
rho_6_1 0
rho_6_2 0
rho_6_3 0
rho_6_4 0
rho_6_5 0
rho_7_1 1
rho_7_2 1
rho_7_3 1
rho_7_4 1
rho_7_5 1
rho_8_1 1
rho_8_2 1
rho_8_3 1
rho_8_4 1
rho_8_5 1
rho_9_1 1
rho_9_2 1
rho_9_3 1
rho_9_4 1
rho_9_5 1
lambd_1_1 0
lambd_1_2 0
lambd_1_3 0
lambd_1_4 0
lambd_1_5 0
lambd_2_1 0
lambd_2_2 0
lambd_2_3 0
lambd_2_4 0
lambd_2_5 0
lambd_3_1 0
lambd_3_2 0
lambd_3_3 0
lambd_3_4 0
lambd_3_5 0
lambd_4_1 0
lambd_4_2 0
lambd_4_3 0
lambd_4_4 0
lambd_4_5 0
lambd_5_1 0
lambd_5_2 0
lambd_5_3 0
lambd_5_4 0
lambd_5_5 0
lambd_6_1 0
lambd_6_2 0
lambd_6_3 0
lambd_6_4 0
lambd_6_5 0
lambd_7_1 0
lambd_7_2 0
lambd_7_3 0
lambd_7_4 0
lambd_7_5 0
lambd_8_1 0
lambd_8_2 0
lambd_8_3 0
lambd_8_4 0
lambd_8_5 0
lambd_9_1 0
lambd_9_2 0
lambd_9_3 0
lambd_9_4 0
lambd_9_5 0
alpha_1_1 1
alpha_1_2 1
alpha_1_3 1
alpha_1_4 1
alpha_1_5 1
alpha_2_1 0
alpha_2_2 0
alpha_2_3 0
alpha_2_4 0
alpha_2_5 0
alpha_3_1 0
alpha_3_2 0
alpha_3_3 0
alpha_3_4 0
alpha_3_5 0
alpha_4_1 0
alpha_4_2 0
alpha_4_3 0
alpha_4_4 0
alpha_4_5 0
alpha_5_1 0
alpha_5_2 0
alpha_5_3 0
alpha_5_4 0
alpha_5_5 0
alpha_6_1 0
alpha_6_2 0
alpha_6_3 0
alpha_6_4 0
alpha_6_5 0
alpha_7_1 1
alpha_7_2 1
alpha_7_3 1
alpha_7_4 1
alpha_7_5 1
alpha_8_1 0
alpha_8_2 0
alpha_8_3 0
alpha_8_4 0
alpha_8_5 0
alpha_9_1 0
alpha_9_2 0
alpha_9_3 0
alpha_9_4 0
alpha_9_5 0
